20J6M/DAT/20J6MUTL-15.dat
20 6
25.2623 25.2623
12.9512 12.9512
10.7171 10.7171
0.6524 0.6524
21.0221 21.0221
19.0265 19.0265
19.0343 19.0343
0.3192 0.3192
41.0047 41.0047
6.891 6.891
18.2344 18.2344
25.3226 25.3226
16.7215 16.7215
7.4806 7.4806
30.0804 30.0804
47.6246 47.6246
3.8626 3.8626
1.5748 1.5748
18.5348 18.5348
6.1288 6.1288
41.5557