20J6M/SOL/20J6MUTL-15.sol
solution status: optimal solution found
objective value:                              41.5557
x#1#2                                               1 	(obj:0)
x#2#6                                               1 	(obj:0)
x#4#3                                               1 	(obj:0)
x#5#4                                               1 	(obj:0)
x#6#1                                0.25157017843534 	(obj:0)
x#7#3                                               1 	(obj:0)
x#8#3                                               1 	(obj:0)
x#9#3                               0.525544632688448 	(obj:0)
x#10#5                                              1 	(obj:0)
x#11#1                                              1 	(obj:0)
x#12#2                              0.339214772574696 	(obj:0)
x#12#6                              0.660785227425304 	(obj:0)
x#13#4                                              1 	(obj:0)
x#14#5                                              1 	(obj:0)
x#15#5                              0.733743567239798 	(obj:0)
x#15#6                              0.266256432760202 	(obj:0)
x#16#4                             0.0800447667801932 	(obj:0)
x#16#5                              0.107356282257488 	(obj:0)
x#17#6                                              1 	(obj:0)
x#18#2                                              1 	(obj:0)
x#19#1                                              1 	(obj:0)
x#20#2                                              1 	(obj:0)
z                                             41.5557 	(obj:1)
